(declare-fun v11 () (_ BitVec 1))
(declare-fun bvlambda_12_ () (_ BitVec 2))
(declare-fun bvlambda_21_ () (_ BitVec 6))
(declare-fun bvlambda_28_ ()Bool         )
(declare-fun a72 () (Array (_ BitVec 1) (_ BitVec 6)))
(assert
(let (($e1 (_ bv0 1)))
(let (($e9 (_ bv0 4)))
(let (($e17 false    ))
(let (($e18 (_ bv0 13)))
(let (($e81 (store a72 bvlambda_28_ bvlambda_21_)))
(let (($e82 (select $e81 v11)))
(let (($e85 (concat $e9         bvlambda_12_ )))
(let (($e86 (store $e81 $e1 bvlambda_21_)))
(let (($e87 (store $e86 v11         $e85)))
(let (($e94 (concat $e82 $e9         )))
(let (($e95 (concat $e94 bvlambda_12_)))
(let (($e109               $e18                 ))
(let (($e114 ((_ extract 11 0) $e109)))
(let (($e115      (bvult        $e114  $e95)         ))
(let (($e213      (=     bvlambda_21_ $e82)  ))
(let (($e214         $e109      ))
(let (($e240         $e109      ))
(let (($e248        $e213       ))
(let (($e249 (select $e87 true         )))
(let (($e291                      (bvnot $e248) ))
(let (($e464      (= $e85 $e249)         ))
             (bvult $e464 $e291)
                                                                                  )                                                                                                                                                                            )                                         ))       )                         ))                                                                                                 ))    )             ))      )))  ))                 ))       )       ))
